(set-logic HORN)
(declare-fun state (Int Int Int Bool Int (Array Int Int) Int (Array Int Int) Bool (Array Int Int) Int Int (Array Int Int) (Array Int Int) (Array Int Int) Bool Int Int (Array Int Int) (Array Int Int) (Array Int Int) Int Int (Array Int Int) (Array Int Int) (Array Int Int) Int Int (Array Int Int) (Array Int Int) (Array Int Int) Int Int (Array Int Int) (Array Int Int) Int Int) Bool)
(assert (forall ((|.x.14| Int) (|main@%.0.i_0_0| Int) (|main@%_7_0_0| Int) (|main@%assume.flag.0_0_0| Bool) (|main@%_10_0_0| Int) (|main@%shadow.mem.1_0_0| (Array Int Int)) (|main@%_15_0_0| Int) (|main@%shadow.mem2.1_0_0| (Array Int Int)) (|main@%_9_0_0| Bool) (|main@%_20_0_0| (Array Int Int)) (|main@%_14_0_0| Int) (|main@%.4.i1_0_0| Int) (|main@%_43_0_0| (Array Int Int)) (|main@%shadow.mem2.0_0_0| (Array Int Int)) (|main@%_2_0_0| (Array Int Int)) (|main@%_8_0_0| Bool) (|main@%_13_0_0| Int) (|main@%.3.i2_0_0| Int) (|main@%_36_0_0| (Array Int Int)) (|main@%shadow.mem4.0_0_0| (Array Int Int)) (|main@%_4_0_0| (Array Int Int)) (|main@%_12_0_0| Int) (|main@%.2.i6_0_0| Int) (|main@%_29_0_0| (Array Int Int)) (|main@%shadow.mem1.0_0_0| (Array Int Int)) (|main@%_1_0_0| (Array Int Int)) (|main@%_11_0_0| Int) (|main@%.1.i10_0_0| Int) (|main@%_22_0_0| (Array Int Int)) (|main@%shadow.mem3.0_0_0| (Array Int Int)) (|main@%_3_0_0| (Array Int Int)) (|@nd_char_0_0| Int) (|main@%.01.i14_0_0| Int) (|main@%shadow.mem.0_0_0| (Array Int Int)) (|main@%shadow.mem5.0_0_0| (Array Int Int)) (|@nd_0_0| Int) (|main@%_18_0| Int) (|.x.33| Int) (|.x.34| Int) (|.x.23| (Array Int Int)) (|.x.21| Int) (|main@%.01.i14_2| Int) (|.x.15| Int) (|main@%_8_1| Bool) (|.x.16| Int) (|.x.17| Bool) (|.x.18| (Array Int Int)) (|.x.19| (Array Int Int)) (|main@%_9_1| Bool) (|main@%_2_1| (Array Int Int)) (|main@%shadow.mem.0_2| (Array Int Int)) (|main@%shadow.mem5.0_2| (Array Int Int)) (|main@%_15_1| Int) (|main@%_14_1| Int) (|main@%_13_1| Int) (|main@%_12_1| Int) (|main@%_11_1| Int) (|main@%_10_1| Int) (|main@%_7_1| Int) (|.x.20| (Array Int Int)) (|.x.31| (Array Int Int)) (|main@%_4_1| (Array Int Int)) (|main@%_1_1| (Array Int Int)) (|main@%_3_1| (Array Int Int)) (|.x.32| (Array Int Int)) (|.x.30| Int) (|.x.28| (Array Int Int)) (|.x.29| (Array Int Int)) (|.x.27| Int) (|.x.25| (Array Int Int)) (|.x.26| (Array Int Int)) (|.x.24| Int) (|.x.22| (Array Int Int)) (|.xtv.1| Int)) (=> (= .x.14 0) (state |.x.14| |main@%.0.i_0_0| |main@%_7_0_0| |main@%assume.flag.0_0_0| |main@%_10_0_0| |main@%shadow.mem.1_0_0| |main@%_15_0_0| |main@%shadow.mem2.1_0_0| |main@%_9_0_0| |main@%_20_0_0| |main@%_14_0_0| |main@%.4.i1_0_0| |main@%_43_0_0| |main@%shadow.mem2.0_0_0| |main@%_2_0_0| |main@%_8_0_0| |main@%_13_0_0| |main@%.3.i2_0_0| |main@%_36_0_0| |main@%shadow.mem4.0_0_0| |main@%_4_0_0| |main@%_12_0_0| |main@%.2.i6_0_0| |main@%_29_0_0| |main@%shadow.mem1.0_0_0| |main@%_1_0_0| |main@%_11_0_0| |main@%.1.i10_0_0| |main@%_22_0_0| |main@%shadow.mem3.0_0_0| |main@%_3_0_0| |@nd_char_0_0| |main@%.01.i14_0_0| |main@%shadow.mem.0_0_0| |main@%shadow.mem5.0_0_0| |@nd_0_0| |main@%_18_0|))))
(assert (forall ((|.x.14| Int) (|main@%.0.i_0_0| Int) (|main@%_7_0_0| Int) (|main@%assume.flag.0_0_0| Bool) (|main@%_10_0_0| Int) (|main@%shadow.mem.1_0_0| (Array Int Int)) (|main@%_15_0_0| Int) (|main@%shadow.mem2.1_0_0| (Array Int Int)) (|main@%_9_0_0| Bool) (|main@%_20_0_0| (Array Int Int)) (|main@%_14_0_0| Int) (|main@%.4.i1_0_0| Int) (|main@%_43_0_0| (Array Int Int)) (|main@%shadow.mem2.0_0_0| (Array Int Int)) (|main@%_2_0_0| (Array Int Int)) (|main@%_8_0_0| Bool) (|main@%_13_0_0| Int) (|main@%.3.i2_0_0| Int) (|main@%_36_0_0| (Array Int Int)) (|main@%shadow.mem4.0_0_0| (Array Int Int)) (|main@%_4_0_0| (Array Int Int)) (|main@%_12_0_0| Int) (|main@%.2.i6_0_0| Int) (|main@%_29_0_0| (Array Int Int)) (|main@%shadow.mem1.0_0_0| (Array Int Int)) (|main@%_1_0_0| (Array Int Int)) (|main@%_11_0_0| Int) (|main@%.1.i10_0_0| Int) (|main@%_22_0_0| (Array Int Int)) (|main@%shadow.mem3.0_0_0| (Array Int Int)) (|main@%_3_0_0| (Array Int Int)) (|@nd_char_0_0| Int) (|main@%.01.i14_0_0| Int) (|main@%shadow.mem.0_0_0| (Array Int Int)) (|main@%shadow.mem5.0_0_0| (Array Int Int)) (|@nd_0_0| Int) (|main@%_18_0| Int) (|.x.33| Int) (|.x.34| Int) (|.x.23| (Array Int Int)) (|.x.21| Int) (|main@%.01.i14_2| Int) (|.x.15| Int) (|main@%_8_1| Bool) (|.x.16| Int) (|.x.17| Bool) (|.x.18| (Array Int Int)) (|.x.19| (Array Int Int)) (|main@%_9_1| Bool) (|main@%_2_1| (Array Int Int)) (|main@%shadow.mem.0_2| (Array Int Int)) (|main@%shadow.mem5.0_2| (Array Int Int)) (|main@%_15_1| Int) (|main@%_14_1| Int) (|main@%_13_1| Int) (|main@%_12_1| Int) (|main@%_11_1| Int) (|main@%_10_1| Int) (|main@%_7_1| Int) (|.x.20| (Array Int Int)) (|.x.31| (Array Int Int)) (|main@%_4_1| (Array Int Int)) (|main@%_1_1| (Array Int Int)) (|main@%_3_1| (Array Int Int)) (|.x.32| (Array Int Int)) (|.x.30| Int) (|.x.28| (Array Int Int)) (|.x.29| (Array Int Int)) (|.x.27| Int) (|.x.25| (Array Int Int)) (|.x.26| (Array Int Int)) (|.x.24| Int) (|.x.22| (Array Int Int)) (|.xtv.1| Int)) (=> (and (state |.x.14| |main@%.0.i_0_0| |main@%_7_0_0| |main@%assume.flag.0_0_0| |main@%_10_0_0| |main@%shadow.mem.1_0_0| |main@%_15_0_0| |main@%shadow.mem2.1_0_0| |main@%_9_0_0| |main@%_20_0_0| |main@%_14_0_0| |main@%.4.i1_0_0| |main@%_43_0_0| |main@%shadow.mem2.0_0_0| |main@%_2_0_0| |main@%_8_0_0| |main@%_13_0_0| |main@%.3.i2_0_0| |main@%_36_0_0| |main@%shadow.mem4.0_0_0| |main@%_4_0_0| |main@%_12_0_0| |main@%.2.i6_0_0| |main@%_29_0_0| |main@%shadow.mem1.0_0_0| |main@%_1_0_0| |main@%_11_0_0| |main@%.1.i10_0_0| |main@%_22_0_0| |main@%shadow.mem3.0_0_0| |main@%_3_0_0| |@nd_char_0_0| |main@%.01.i14_0_0| |main@%shadow.mem.0_0_0| |main@%shadow.mem5.0_0_0| |@nd_0_0| |main@%_18_0|) (let ((.def_55 (= main@%shadow.mem2.0_0_0 .x.23))) (let ((.def_57 (= main@%.4.i1_0_0 .x.21))) (let ((.def_63 (= .x.15 1))) (let ((.def_67 (= main@%.0.i_0_0 .x.16))) (let ((.def_70 (= main@%assume.flag.0_0_0 .x.17))) (let ((.def_73 (= main@%shadow.mem.1_0_0 .x.18))) (let ((.def_76 (= main@%shadow.mem2.1_0_0 .x.19))) (let ((.def_86 (= .x.16 0))) (let ((.def_89 (= .x.15 6))) (let ((.def_91 (= main@%.01.i14_0_0 main@%.01.i14_2))) (let ((.def_94 (= main@%shadow.mem.0_0_0 main@%shadow.mem.0_2))) (let ((.def_97 (= main@%shadow.mem5.0_0_0 main@%shadow.mem5.0_2))) (let ((.def_132 (= main@%_20_0_0 .x.20))) (let ((.def_135 (= main@%_22_0_0 .x.31))) (let ((.def_146 (<= (+ main@%_7_0_0 (* (- 1) main@%.01.i14_0_0)) 1))) (let ((.def_154 (= .x.31 (store main@%shadow.mem5.0_0_0 (+ main@%_11_0_0 main@%.01.i14_0_0) main@%_18_0)))) (let ((.def_158 (<= main@%_11_0_0 0))) (let ((.def_159 (or (not (<= (+ main@%_11_0_0 main@%.01.i14_0_0) 0)) .def_158))) (let ((.def_163 (= .x.20 (store main@%shadow.mem.0_0_0 (+ main@%_10_0_0 main@%.01.i14_0_0) main@%_18_0)))) (let ((.def_167 (<= main@%_10_0_0 0))) (let ((.def_168 (or (not (<= (+ main@%_10_0_0 main@%.01.i14_0_0) 0)) .def_167))) (let ((.def_170 (not .def_167))) (let ((.def_172 (not .def_158))) (let ((.def_178 (= .x.14 1))) (let ((.def_180 (= main@%_7_0_0 main@%_7_1))) (let ((.def_182 (= main@%_10_0_0 main@%_10_1))) (let ((.def_184 (= main@%_15_0_0 main@%_15_1))) (let ((.def_186 (= main@%_9_0_0 main@%_9_1))) (let ((.def_188 (= main@%_14_0_0 main@%_14_1))) (let ((.def_190 (= main@%_2_0_0 main@%_2_1))) (let ((.def_192 (= main@%_8_0_0 main@%_8_1))) (let ((.def_194 (= main@%_13_0_0 main@%_13_1))) (let ((.def_197 (= main@%_4_0_0 main@%_4_1))) (let ((.def_199 (= main@%_12_0_0 main@%_12_1))) (let ((.def_202 (= main@%_1_0_0 main@%_1_1))) (let ((.def_204 (= main@%_11_0_0 main@%_11_1))) (let ((.def_207 (= main@%_3_0_0 main@%_3_1))) (let ((.def_211 (= main@%shadow.mem3.0_0_0 .x.32))) (let ((.def_213 (= main@%.1.i10_0_0 .x.30))) (let ((.def_214 (and .def_211 .def_213))) (let ((.def_221 (and .def_76 (and .def_73 (and .def_70 (and main@%_8_0_0 .def_67)))))) (let ((.def_249 (= .x.15 2))) (let ((.def_279 (not main@%_8_0_0))) (let ((.def_281 (= main@%_2_0_0 .x.19))) (let ((.def_284 (= main@%_9_0_0 .x.17))) (let ((.def_288 (= main@%_29_0_0 .x.28))) (let ((.def_296 (<= (+ main@%_7_0_0 (* (- 1) main@%.1.i10_0_0)) 1))) (let ((.def_301 (and .def_132 (and .def_76 (and .def_73 (and .def_67 .def_70)))))) (let ((.def_325 (= .x.28 (store main@%shadow.mem3.0_0_0 (+ main@%_12_0_0 main@%.1.i10_0_0) (select main@%_22_0_0 (+ main@%_11_0_0 main@%.1.i10_0_0)))))) (let ((.def_329 (<= main@%_12_0_0 0))) (let ((.def_330 (or (not (<= (+ main@%_12_0_0 main@%.1.i10_0_0) 0)) .def_329))) (let ((.def_334 (or .def_158 (not (<= (+ main@%_11_0_0 main@%.1.i10_0_0) 0))))) (let ((.def_336 (not .def_329))) (let ((.def_341 (= .x.14 2))) (let ((.def_345 (= main@%shadow.mem1.0_0_0 .x.29))) (let ((.def_347 (= main@%.2.i6_0_0 .x.27))) (let ((.def_352 (and .def_132 .def_221))) (let ((.def_382 (= .x.15 3))) (let ((.def_418 (= main@%_20_0_0 .x.18))) (let ((.def_422 (= main@%_36_0_0 .x.25))) (let ((.def_430 (<= (+ main@%_7_0_0 (* (- 1) main@%.2.i6_0_0)) 1))) (let ((.def_458 (= .x.25 (store main@%shadow.mem1.0_0_0 (+ main@%_13_0_0 main@%.2.i6_0_0) (select main@%_29_0_0 (+ main@%_12_0_0 main@%.2.i6_0_0)))))) (let ((.def_462 (<= main@%_13_0_0 0))) (let ((.def_463 (or (not (<= (+ main@%_13_0_0 main@%.2.i6_0_0) 0)) .def_462))) (let ((.def_467 (or .def_329 (not (<= (+ main@%_12_0_0 main@%.2.i6_0_0) 0))))) (let ((.def_469 (not .def_462))) (let ((.def_474 (= .x.14 3))) (let ((.def_478 (= main@%shadow.mem4.0_0_0 .x.26))) (let ((.def_480 (= main@%.3.i2_0_0 .x.24))) (let ((.def_517 (= .x.15 4))) (let ((.def_559 (= main@%_43_0_0 .x.22))) (let ((.def_567 (<= (+ main@%_7_0_0 (* (- 1) main@%.3.i2_0_0)) 1))) (let ((.def_598 (= .x.22 (store main@%shadow.mem4.0_0_0 (+ main@%_14_0_0 main@%.3.i2_0_0) (select main@%_36_0_0 (+ main@%_13_0_0 main@%.3.i2_0_0)))))) (let ((.def_602 (<= main@%_14_0_0 0))) (let ((.def_603 (or (not (<= (+ main@%_14_0_0 main@%.3.i2_0_0) 0)) .def_602))) (let ((.def_607 (or .def_462 (not (<= (+ main@%_13_0_0 main@%.3.i2_0_0) 0))))) (let ((.def_609 (not .def_602))) (let ((.def_614 (= .x.14 4))) (let ((.def_655 (= .x.15 5))) (let ((.def_658 (and .def_57 .def_132))) (let ((.def_705 (store main@%shadow.mem2.0_0_0 (+ main@%_15_0_0 main@%.4.i1_0_0) (select main@%_43_0_0 (+ main@%_14_0_0 main@%.4.i1_0_0))))) (let ((.def_709 (<= (+ main@%_7_0_0 (* (- 1) main@%.4.i1_0_0)) 1))) (let ((.def_741 (<= main@%_15_0_0 0))) (let ((.def_742 (or (not (<= (+ main@%_15_0_0 main@%.4.i1_0_0) 0)) .def_741))) (let ((.def_746 (or .def_602 (not (<= (+ main@%_14_0_0 main@%.4.i1_0_0) 0))))) (let ((.def_748 (not .def_741))) (let ((.def_753 (= .x.14 5))) (let ((.def_800 (not (<= main@%_7_0_0 main@%.0.i_0_0)))) (let ((.def_839 (or .def_741 (not (<= (+ main@%.0.i_0_0 main@%_15_0_0) 0))))) (let ((.def_844 (or .def_167 (not (<= (+ main@%.0.i_0_0 main@%_10_0_0) 0))))) (let ((.def_848 (= (select main@%shadow.mem2.1_0_0 (+ main@%.0.i_0_0 main@%_15_0_0)) (select main@%shadow.mem.1_0_0 (+ main@%.0.i_0_0 main@%_10_0_0))))) (let ((.def_852 (= .x.14 6))) (and (and (= @nd_char_0_0 .x.33) (= @nd_0_0 .x.34)) (or (or (or (or (or (or (and (and .def_55 .def_57) (or (and (or (or (and (or (and (or (or (and (or (and (or (or (and (or (and (or (and (= main@%.01.i14_2 0) (and (and (and (and (and .def_63 main@%_8_1) .def_67) .def_70) .def_73) .def_76)) (and (and (and (and (and (and (= .x.17 main@%_9_1) (and (not main@%_8_1) (= .x.19 main@%_2_1))) .def_86) .def_89) .def_91) .def_94) .def_97)) (and (and (and (= .x.14 0) (and (not (<= main@%_15_1 0)) (and (not (<= main@%_14_1 0)) (and (not (<= main@%_13_1 0)) (and (not (<= main@%_12_1 0)) (and (not (<= main@%_11_1 0)) (and (not (<= main@%_10_1 0)) (and (= main@%_8_1 (not (<= main@%_7_1 0))) (= main@%_8_1 main@%_9_1))))))))) .def_132) .def_135)) (and (and (and (and (and (and (and (and (and (and (and (and (and (and (and (= (+ main@%.01.i14_0_0 (* (- 1) main@%.01.i14_2)) (- 1)) (and (= main@%shadow.mem.0_2 .x.20) (and (= main@%shadow.mem5.0_2 .x.31) (and (not .def_146) (and (and (and (and (and (and (and .def_76 (and .def_73 (and .def_70 (and .def_63 .def_67)))) .def_154) .def_159) .def_163) .def_168) .def_170) .def_172))))) .def_178) .def_180) .def_182) .def_184) .def_186) .def_188) .def_190) .def_192) .def_194) .def_197) .def_199) .def_202) .def_204) .def_207)) .def_214) (and (and (= .x.30 0) (and (= main@%_3_0_0 .x.32) (and .def_207 (and .def_204 (and .def_202 (and .def_199 (and .def_197 (and .def_194 (and .def_192 (and .def_190 (and .def_188 (and .def_186 (and .def_184 (and .def_182 (and .def_180 (and .def_178 (and .def_146 (and .def_172 (and .def_170 (and .def_168 (and .def_163 (and .def_159 (and .def_154 (and .def_97 (and .def_94 (and .def_91 .def_221)))))))))))))))))))))))))) .def_249)) (and (and (= .x.18 .x.20) (and (and (and .def_207 (and .def_204 (and .def_202 (and .def_199 (and .def_197 (and .def_194 (and .def_192 (and .def_190 (and .def_188 (and .def_186 (and .def_184 (and .def_182 (and .def_180 (and .def_178 (and .def_146 (and .def_172 (and .def_170 (and .def_168 (and .def_163 (and .def_159 (and .def_154 (and .def_97 (and .def_94 (and .def_91 (and .def_89 (and .def_86 .def_214)))))))))))))))))))))))))) .def_279) .def_281)) .def_284)) .def_288) (and (and (= (+ main@%.1.i10_0_0 (* (- 1) .x.30)) (- 1)) (and (= .x.32 .x.28) (and (not .def_296) (and (and (and (and (and .def_249 (and .def_207 (and .def_204 (and .def_202 (and .def_199 (and .def_197 (and .def_194 (and .def_192 (and .def_190 (and .def_188 (and .def_186 (and .def_184 (and .def_182 (and .def_180 (and .def_172 (and .def_97 (and .def_94 (and .def_91 (and .def_135 .def_301))))))))))))))))))) .def_325) .def_330) .def_334) .def_336)))) .def_341)) (and .def_345 .def_347)) (and (and (= .x.27 0) (and (= main@%_1_0_0 .x.29) (and .def_341 (and .def_296 (and .def_336 (and .def_334 (and .def_330 (and .def_325 (and .def_207 (and .def_204 (and .def_202 (and .def_199 (and .def_197 (and .def_194 (and .def_192 (and .def_190 (and .def_188 (and .def_186 (and .def_184 (and .def_182 (and .def_180 (and .def_172 (and .def_97 (and .def_94 (and .def_91 (and .def_211 (and .def_135 (and .def_213 .def_352)))))))))))))))))))))))))))) .def_382)) (and (and .def_341 (and .def_296 (and .def_336 (and .def_334 (and .def_330 (and .def_325 (and .def_284 (and .def_281 (and .def_279 (and .def_207 (and .def_204 (and .def_202 (and .def_199 (and .def_197 (and .def_194 (and .def_192 (and .def_190 (and .def_188 (and .def_186 (and .def_184 (and .def_182 (and .def_180 (and .def_172 (and .def_97 (and .def_94 (and .def_91 (and .def_89 (and .def_86 (and .def_211 (and .def_135 (and .def_213 (and .def_345 (and .def_132 .def_347))))))))))))))))))))))))))))))))) .def_418)) .def_422) (and (and (= (+ main@%.2.i6_0_0 (* (- 1) .x.27)) (- 1)) (and (= .x.29 .x.25) (and (not .def_430) (and (and (and (and (and .def_382 (and .def_336 (and .def_207 (and .def_204 (and .def_202 (and .def_199 (and .def_197 (and .def_194 (and .def_192 (and .def_190 (and .def_188 (and .def_186 (and .def_184 (and .def_182 (and .def_180 (and .def_97 (and .def_94 (and .def_91 (and .def_211 (and .def_135 (and .def_213 (and .def_288 .def_301)))))))))))))))))))))) .def_458) .def_463) .def_467) .def_469)))) .def_474)) (and .def_478 .def_480)) (and (and (= .x.24 0) (and (= main@%_4_0_0 .x.26) (and .def_474 (and .def_430 (and .def_469 (and .def_467 (and .def_463 (and .def_458 (and .def_336 (and .def_207 (and .def_204 (and .def_202 (and .def_199 (and .def_197 (and .def_194 (and .def_192 (and .def_190 (and .def_188 (and .def_186 (and .def_184 (and .def_182 (and .def_180 (and .def_97 (and .def_94 (and .def_91 (and .def_211 (and .def_135 (and .def_213 (and .def_345 (and .def_288 (and .def_347 .def_352))))))))))))))))))))))))))))))) .def_517)) (and .def_474 (and .def_430 (and .def_469 (and .def_467 (and .def_463 (and .def_458 (and .def_418 (and .def_336 (and .def_284 (and .def_281 (and .def_279 (and .def_207 (and .def_204 (and .def_202 (and .def_199 (and .def_197 (and .def_194 (and .def_192 (and .def_190 (and .def_188 (and .def_186 (and .def_184 (and .def_182 (and .def_180 (and .def_97 (and .def_94 (and .def_91 (and .def_89 (and .def_86 (and .def_211 (and .def_135 (and .def_213 (and .def_345 (and .def_288 (and .def_347 (and .def_478 (and .def_132 .def_480)))))))))))))))))))))))))))))))))))))) .def_559) (and (and (= (+ main@%.3.i2_0_0 (* (- 1) .x.24)) (- 1)) (and (= .x.26 .x.22) (and (not .def_567) (and (and (and (and (and .def_517 (and .def_469 (and .def_207 (and .def_204 (and .def_202 (and .def_199 (and .def_197 (and .def_194 (and .def_192 (and .def_190 (and .def_188 (and .def_186 (and .def_184 (and .def_182 (and .def_180 (and .def_97 (and .def_94 (and .def_91 (and .def_211 (and .def_135 (and .def_213 (and .def_345 (and .def_288 (and .def_347 (and .def_301 .def_422))))))))))))))))))))))))) .def_598) .def_603) .def_607) .def_609)))) .def_614))) (and (and (= .x.21 0) (and (= main@%_2_0_0 .x.23) (and .def_614 (and .def_567 (and .def_609 (and .def_607 (and .def_603 (and .def_598 (and .def_469 (and .def_207 (and .def_204 (and .def_202 (and .def_199 (and .def_197 (and .def_194 (and .def_192 (and .def_190 (and .def_188 (and .def_186 (and .def_184 (and .def_182 (and .def_180 (and .def_97 (and .def_94 (and .def_91 (and .def_211 (and .def_135 (and .def_213 (and .def_345 (and .def_288 (and .def_347 (and .def_478 (and .def_422 (and .def_352 .def_480)))))))))))))))))))))))))))))))))) .def_655)) (and .def_614 (and .def_567 (and .def_609 (and .def_607 (and .def_603 (and .def_598 (and .def_469 (and .def_418 (and .def_284 (and .def_281 (and .def_279 (and .def_207 (and .def_204 (and .def_202 (and .def_199 (and .def_197 (and .def_194 (and .def_192 (and .def_190 (and .def_188 (and .def_186 (and .def_184 (and .def_182 (and .def_180 (and .def_97 (and .def_94 (and .def_91 (and .def_89 (and .def_86 (and .def_211 (and .def_135 (and .def_213 (and .def_345 (and .def_288 (and .def_347 (and .def_478 (and .def_422 (and .def_480 (and .def_55 .def_658)))))))))))))))))))))))))))))))))))))))) (and (and (= (+ main@%.4.i1_0_0 (* (- 1) .x.21)) (- 1)) (and (= .x.23 .def_705) (and (not .def_709) (and (and (and (and .def_655 (and .def_609 (and .def_207 (and .def_204 (and .def_202 (and .def_199 (and .def_197 (and .def_194 (and .def_192 (and .def_190 (and .def_188 (and .def_186 (and .def_184 (and .def_182 (and .def_180 (and .def_97 (and .def_94 (and .def_91 (and .def_211 (and .def_135 (and .def_213 (and .def_345 (and .def_288 (and .def_347 (and .def_478 (and .def_422 (and .def_480 (and .def_301 .def_559)))))))))))))))))))))))))))) .def_742) .def_746) .def_748)))) .def_753)) (and (= .x.19 .def_705) (and .def_753 (and .def_709 (and .def_748 (and .def_746 (and .def_742 (and .def_609 (and .def_418 (and .def_284 (and .def_207 (and .def_204 (and .def_202 (and .def_199 (and .def_197 (and .def_194 (and .def_192 (and .def_190 (and .def_188 (and .def_186 (and .def_184 (and .def_182 (and .def_180 (and .def_97 (and .def_94 (and .def_91 (and .def_89 (and .def_86 (and .def_211 (and .def_135 (and .def_213 (and .def_345 (and .def_288 (and .def_347 (and .def_478 (and .def_422 (and .def_480 (and .def_55 (and .def_559 .def_658))))))))))))))))))))))))))))))))))))))) (and (and (= (+ main@%.0.i_0_0 (* (- 1) .x.16)) (- 1)) (and (= .x.17 (and main@%assume.flag.0_0_0 .def_800)) (and (and (and (and .def_748 (and .def_207 (and .def_204 (and .def_202 (and .def_199 (and .def_197 (and .def_194 (and .def_192 (and .def_190 (and .def_188 (and .def_186 (and .def_184 (and .def_182 (and .def_180 (and .def_170 (and .def_97 (and .def_94 (and .def_91 (and .def_89 (and .def_211 (and .def_135 (and .def_213 (and .def_345 (and .def_288 (and .def_347 (and .def_478 (and .def_422 (and .def_480 (and .def_55 (and .def_559 (and .def_57 (and .def_132 (and .def_73 .def_76))))))))))))))))))))))))))))))))) .def_839) .def_844) .def_848))) .def_852)) (and (= .x.15 7) (and (not .def_848) (and .def_852 (and .def_800 (and .def_844 (and .def_839 (and .def_748 (and .def_207 (and .def_204 (and .def_202 (and .def_199 (and .def_197 (and .def_194 (and .def_192 (and .def_190 (and .def_188 (and .def_186 (and .def_184 (and .def_182 (and .def_180 (and .def_170 (and .def_97 (and .def_94 (and .def_91 (and .def_211 (and .def_135 (and .def_213 (and .def_345 (and .def_288 (and .def_347 (and .def_478 (and .def_422 (and .def_480 (and .def_55 (and .def_559 (and .def_57 (and .def_132 (and .def_76 (and .def_73 (and .def_70 (and main@%assume.flag.0_0_0 .def_67)))))))))))))))))))))))))))))))))))))))))))))))))))))))))))))))))))))))))))))))))))))))))))))))))))))))))))))))))))))))))))))))))))))))) (state |.x.15| |.x.16| |main@%_7_1| |.x.17| |main@%_10_1| |.x.18| |main@%_15_1| |.x.19| |main@%_9_1| |.x.20| |main@%_14_1| |.x.21| |.x.22| |.x.23| |main@%_2_1| |main@%_8_1| |main@%_13_1| |.x.24| |.x.25| |.x.26| |main@%_4_1| |main@%_12_1| |.x.27| |.x.28| |.x.29| |main@%_1_1| |main@%_11_1| |.x.30| |.x.31| |.x.32| |main@%_3_1| |.x.33| |main@%.01.i14_2| |main@%shadow.mem.0_2| |main@%shadow.mem5.0_2| |.x.34| |.xtv.1|))))
(assert (forall ((|.x.14| Int) (|main@%.0.i_0_0| Int) (|main@%_7_0_0| Int) (|main@%assume.flag.0_0_0| Bool) (|main@%_10_0_0| Int) (|main@%shadow.mem.1_0_0| (Array Int Int)) (|main@%_15_0_0| Int) (|main@%shadow.mem2.1_0_0| (Array Int Int)) (|main@%_9_0_0| Bool) (|main@%_20_0_0| (Array Int Int)) (|main@%_14_0_0| Int) (|main@%.4.i1_0_0| Int) (|main@%_43_0_0| (Array Int Int)) (|main@%shadow.mem2.0_0_0| (Array Int Int)) (|main@%_2_0_0| (Array Int Int)) (|main@%_8_0_0| Bool) (|main@%_13_0_0| Int) (|main@%.3.i2_0_0| Int) (|main@%_36_0_0| (Array Int Int)) (|main@%shadow.mem4.0_0_0| (Array Int Int)) (|main@%_4_0_0| (Array Int Int)) (|main@%_12_0_0| Int) (|main@%.2.i6_0_0| Int) (|main@%_29_0_0| (Array Int Int)) (|main@%shadow.mem1.0_0_0| (Array Int Int)) (|main@%_1_0_0| (Array Int Int)) (|main@%_11_0_0| Int) (|main@%.1.i10_0_0| Int) (|main@%_22_0_0| (Array Int Int)) (|main@%shadow.mem3.0_0_0| (Array Int Int)) (|main@%_3_0_0| (Array Int Int)) (|@nd_char_0_0| Int) (|main@%.01.i14_0_0| Int) (|main@%shadow.mem.0_0_0| (Array Int Int)) (|main@%shadow.mem5.0_0_0| (Array Int Int)) (|@nd_0_0| Int) (|main@%_18_0| Int) (|.x.33| Int) (|.x.34| Int) (|.x.23| (Array Int Int)) (|.x.21| Int) (|main@%.01.i14_2| Int) (|.x.15| Int) (|main@%_8_1| Bool) (|.x.16| Int) (|.x.17| Bool) (|.x.18| (Array Int Int)) (|.x.19| (Array Int Int)) (|main@%_9_1| Bool) (|main@%_2_1| (Array Int Int)) (|main@%shadow.mem.0_2| (Array Int Int)) (|main@%shadow.mem5.0_2| (Array Int Int)) (|main@%_15_1| Int) (|main@%_14_1| Int) (|main@%_13_1| Int) (|main@%_12_1| Int) (|main@%_11_1| Int) (|main@%_10_1| Int) (|main@%_7_1| Int) (|.x.20| (Array Int Int)) (|.x.31| (Array Int Int)) (|main@%_4_1| (Array Int Int)) (|main@%_1_1| (Array Int Int)) (|main@%_3_1| (Array Int Int)) (|.x.32| (Array Int Int)) (|.x.30| Int) (|.x.28| (Array Int Int)) (|.x.29| (Array Int Int)) (|.x.27| Int) (|.x.25| (Array Int Int)) (|.x.26| (Array Int Int)) (|.x.24| Int) (|.x.22| (Array Int Int)) (|.xtv.1| Int)) (=> (state |.x.14| |main@%.0.i_0_0| |main@%_7_0_0| |main@%assume.flag.0_0_0| |main@%_10_0_0| |main@%shadow.mem.1_0_0| |main@%_15_0_0| |main@%shadow.mem2.1_0_0| |main@%_9_0_0| |main@%_20_0_0| |main@%_14_0_0| |main@%.4.i1_0_0| |main@%_43_0_0| |main@%shadow.mem2.0_0_0| |main@%_2_0_0| |main@%_8_0_0| |main@%_13_0_0| |main@%.3.i2_0_0| |main@%_36_0_0| |main@%shadow.mem4.0_0_0| |main@%_4_0_0| |main@%_12_0_0| |main@%.2.i6_0_0| |main@%_29_0_0| |main@%shadow.mem1.0_0_0| |main@%_1_0_0| |main@%_11_0_0| |main@%.1.i10_0_0| |main@%_22_0_0| |main@%shadow.mem3.0_0_0| |main@%_3_0_0| |@nd_char_0_0| |main@%.01.i14_0_0| |main@%shadow.mem.0_0_0| |main@%shadow.mem5.0_0_0| |@nd_0_0| |main@%_18_0|) (not (= .x.14 7)))))
(check-sat)
